
344
1000
   799      1
   797      1
   796      2
   794      1
   793      1
   792      2
   791      1
   789      2
   788      1
   785      4
   783      1
   780      1
   779      1
   778      1
   777      1
   774      1
   772      1
   771      1
   769      1
   768      1
   766      1
   765      1
   764      2
   760      1
   757      2
   755      1
   753      1
   752      1
   750      1
   749      1
   747      1
   746      1
   744      1
   741      1
   740      1
   739      1
   736      1
   735      3
   733      1
   731      1
   730      1
   729      1
   728      1
   725      2
   724      1
   722      1
   721      1
   717      1
   716      1
   714      1
   713      3
   711      1
   710      2
   709      1
   706      1
   705      1
   704      2
   703      1
   701      2
   698      1
   697      1
   696      4
   695      1
   694      1
   692      1
   691      2
   690      1
   686      1
   685      1
   681      1
   677      1
   676      2
   674      1
   673      1
   669      1
   668      2
   666      1
   664      2
   659      1
   657      1
   656      4
   654      2
   653      1
   652      1
   650      1
   649      2
   648      1
   646      1
   645      2
   640      1
   639      2
   636      1
   635      2
   634      1
   630      2
   629      1
   628      1
   627      1
   626      2
   625      3
   623      2
   622      1
   621      1
   620      1
   617      3
   616      1
   615      2
   614      2
   613      1
   607      1
   606      2
   604      1
   603      1
   602      1
   601      1
   600      3
   598      2
   597      1
   596      1
   594      2
   591      1
   583      1
   582      2
   580      2
   578      3
   577      2
   576      1
   574      1
   573      1
   571      1
   570      1
   569      1
   567      1
   565      1
   564      1
   563      4
   562      1
   560      2
   559      1
   557      3
   555      1
   554      1
   550      1
   548      2
   547      2
   546      2
   545      1
   544      1
   543      2
   542      2
   541      2
   540      1
   538      1
   536      1
   533      1
   530      2
   529      1
   527      2
   525      1
   523      2
   520      1
   518      1
   516      2
   515      1
   514      1
   513      1
   508      1
   507      2
   505      1
   504      1
   503      1
   499      2
   498      5
   496      1
   495      3
   493      2
   489      2
   487      1
   486      2
   484      2
   481      1
   480      1
   479      1
   477      1
   476      2
   474      2
   472      2
   471      1
   470      1
   468      1
   467      1
   462      2
   460      1
   459      1
   458      1
   456      1
   454      1
   452      1
   449      1
   448      1
   447      1
   446      1
   445      1
   443      1
   442      1
   441      1
   440      2
   438      3
   437      1
   436      1
   435      1
   433      1
   431      3
   430      2
   429      1
   425      1
   424      1
   422      1
   421      1
   420      1
   419      1
   418      1
   417      1
   416      2
   415      1
   414      1
   411      2
   408      1
   407      2
   403      2
   399      3
   398      3
   397      1
   395      2
   392      1
   390      3
   382      1
   381      1
   380      3
   379      1
   378      1
   375      1
   374      1
   373      1
   371      2
   369      1
   368      3
   366      1
   365      1
   364      1
   362      2
   360      4
   356      1
   352      1
   351      2
   349      1
   348      2
   347      1
   346      2
   345      1
   344      1
   342      1
   341      3
   338      1
   337      2
   336      1
   335      1
   334      1
   332      1
   331      1
   329      1
   326      2
   325      1
   323      1
   321      1
   320      1
   319      1
   318      1
   317      1
   316      1
   315      4
   314      2
   311      2
   309      4
   307      1
   305      2
   304      1
   303      1
   302      1
   301      1
   299      1
   298      2
   297      1
   295      3
   294      1
   292      2
   289      1
   287      1
   286      3
   285      2
   284      1
   283      2
   281      2
   276      1
   274      1
   273      2
   271      3
   270      2
   267      1
   266      2
   263      1
   262      1
   258      2
   257      2
   253      1
   251      2
   249      1
   248      1
   246      3
   244      1
   243      3
   240      2
   238      2
   237      1
   236      1
   234      1
   233      1
   232      2
   230      2
   228      2
   227      1
   225      1
   223      1
   222      1
   221      2
   216      2
   214      1
   213      1
   211      2
   207      1
   206      1
   203      2
   202      3
   200      1




The initial LP solution: time=1.18


File: BPP_500_1000_0.2_0.8_8.txt  Instance No. 1
Wed Feb 25 13:44:32 2015

LP solution: lpval=248 lpbnd=248

1: 0:1 343:1 obj 1\\
1: 1:1 341:1 obj 1\\
1: 2:1 341:1 obj 1\\
1: 2:1 342:1 obj 1\\
1: 3:1 340:1 obj 1\\
1: 4:1 339:1 obj 1\\
2: 5:1 342:1 obj 1\\
1: 6:1 obj 1\\
2: 7:1 338:1 obj 1\\
1: 8:1 obj 1\\
2: 9:1 obj 1\\
1: 9:1 336:1 obj 1\\
1: 9:1 337:1 obj 1\\
1: 10:1 335:1 obj 1\\
1: 11:1 335:1 obj 1\\
1: 12:1 334:1 obj 1\\
1: 13:1 333:1 obj 1\\
1: 14:1 332:1 obj 1\\
1: 15:1 331:1 obj 1\\
1: 16:1 329:1 obj 1\\
1: 18:1 328:1 obj 1\\
1: 19:1 327:1 obj 1\\
1: 20:1 325:1 obj 1\\
1: 21:1 326:1 obj 1\\
1: 22:1 324:1 obj 1\\
1: 22:1 327:1 obj 1\\
1: 23:1 321:1 obj 1\\
2: 24:1 320:1 obj 1\\
1: 25:1 319:1 obj 1\\
1: 26:1 318:1 obj 1\\
1: 28:1 316:1 obj 1\\
1: 29:1 315:1 obj 1\\
1: 34:1 313:1 obj 1\\
1: 35:1 312:1 obj 1\\
1: 36:1 310:1 obj 1\\
1: 37:1 311:1 obj 1\\
1: 37:1 318:1 obj 1\\
1: 38:1 308:1 obj 1\\
1: 39:1 309:1 obj 1\\
1: 40:1 307:1 obj 1\\
1: 41:1 306:1 obj 1\\
1: 42:1 306:1 obj 1\\
2: 43:1 305:1 obj 1\\
1: 44:1 303:1 obj 1\\
1: 48:1 300:1 obj 1\\
1: 49:1 298:1 obj 1\\
1: 50:1 297:1 obj 1\\
1: 50:1 301:1 obj 1\\
2: 52:1 299:1 obj 1\\
1: 55:1 293:1 obj 1\\
2: 56:1 293:1 obj 1\\
1: 57:1 292:1 obj 1\\
1: 58:1 290:1 obj 1\\
1: 59:1 288:1 obj 1\\
1: 60:1 287:1 obj 1\\
1: 61:1 286:1 obj 1\\
1: 61:1 289:1 obj 1\\
2: 61:1 291:1 obj 1\\
1: 62:1 285:1 obj 1\\
1: 63:1 285:1 obj 1\\
1: 64:1 284:1 obj 1\\
2: 65:1 283:1 obj 1\\
1: 66:1 283:1 obj 1\\
1: 67:1 281:1 obj 1\\
1: 68:1 280:1 obj 1\\
1: 69:1 276:1 obj 1\\
1: 70:1 273:1 obj 1\\
1: 71:1 274:1 obj 1\\
1: 71:1 282:1 obj 1\\
1: 72:1 271:1 obj 1\\
1: 73:1 272:1 obj 1\\
1: 74:1 269:1 obj 1\\
1: 75:1 268:1 obj 1\\
1: 76:1 267:1 obj 1\\
1: 77:1 265:1 obj 1\\
1: 77:1 271:1 obj 1\\
1: 79:1 261:1 obj 1\\
3: 80:1 262:1 obj 1\\
2: 81:1 258:1 obj 1\\
1: 82:1 257:1 obj 1\\
1: 83:1 256:1 obj 1\\
1: 84:1 255:1 obj 1\\
2: 85:1 254:1 obj 1\\
1: 86:1 253:1 obj 1\\
1: 87:1 259:1 obj 1\\
1: 88:1 263:1 obj 1\\
1: 89:1 251:1 obj 1\\
2: 90:1 280:1 obj 1\\
1: 91:1 249:1 obj 1\\
1: 92:1 283:1 obj 1\\
1: 93:1 247:1 obj 1\\
1: 94:1 245:1 obj 1\\
1: 95:1 244:1 obj 1\\
1: 96:1 244:1 obj 1\\
1: 97:1 243:1 obj 1\\
1: 98:1 242:1 obj 1\\
1: 98:1 246:1 obj 1\\
1: 99:1 241:1 obj 1\\
1: 99:1 246:1 obj 1\\
2: 100:1 250:1 obj 1\\
1: 101:1 240:1 obj 1\\
1: 103:1 238:1 obj 1\\
1: 104:1 236:1 obj 1\\
1: 104:1 237:1 obj 1\\
2: 106:1 238:1 obj 1\\
1: 107:1 251:1 obj 1\\
1: 109:1 234:1 obj 1\\
2: 110:1 235:1 obj 1\\
1: 111:1 233:1 obj 1\\
1: 112:1 232:1 obj 1\\
1: 113:1 231:1 obj 1\\
3: 115:1 230:1 obj 1\\
2: 116:1 231:1 obj 1\\
1: 117:1 229:1 obj 1\\
1: 118:1 229:1 obj 1\\
1: 119:1 233:1 obj 1\\
1: 119:1 235:1 obj 1\\
1: 120:1 227:1 obj 1\\
1: 121:1 222:1 obj 1\\
1: 122:1 221:1 obj 1\\
1: 123:1 219:1 obj 1\\
0.5: 124:1 217:1 obj 1\\
2: 124:1 228:1 obj 1\\
2: 125:1 226:1 obj 1\\
0.5: 126:1 216:1 obj 1\\
1: 128:1 220:1 obj 1\\
1: 129:1 214:1 obj 1\\
1: 130:1 213:1 obj 1\\
0.5: 132:1 211:1 obj 1\\
1: 133:1 210:1 obj 1\\
0.5: 134:1 209:1 obj 1\\
3: 135:1 212:1 obj 1\\
1: 135:1 225:1 obj 1\\
2: 137:1 206:1 obj 1\\
0.5: 138:1 205:1 obj 1\\
3: 139:1 207:1 obj 1\\
0.5: 140:1 202:1 obj 1\\
1: 141:1 201:1 obj 1\\
1: 142:1 198:1 obj 1\\
1: 143:1 197:1 obj 1\\
1: 143:1 213:1 obj 1\\
1: 144:1 199:1 obj 1\\
1: 145:1 196:1 obj 1\\
1: 146:1 204:1 obj 1\\
1: 147:1 195:1 obj 1\\
1.5: 148:1 223:1 obj 1\\
1: 149:1 194:1 obj 1\\
1: 150:1 193:1 obj 1\\
1: 150:1 322:1 334:1 obj 1\\
1: 151:1 192:1 obj 1\\
1: 152:1 191:1 obj 1\\
1: 153:1 191:1 obj 1\\
1: 154:1 190:1 obj 1\\
1: 155:1 188:1 obj 1\\
1: 155:1 189:1 obj 1\\
1: 156:1 187:1 obj 1\\
2: 157:1 186:1 obj 1\\
1: 158:1 185:1 obj 1\\
1: 159:1 183:1 obj 1\\
1: 159:1 184:1 obj 1\\
1: 160:1 181:1 obj 1\\
1: 161:1 180:1 obj 1\\
2: 162:1 179:1 obj 1\\
1: 163:1 182:1 obj 1\\
1: 164:1 178:1 obj 1\\
1: 165:1 177:1 obj 1\\
1: 166:1 176:1 obj 1\\
2: 167:1 175:1 obj 1\\
1: 168:1 174:1 obj 1\\
1: 169:1 173:1 obj 1\\
1: 170:1 174:1 obj 1\\
1: 171:2 obj 1\\
1: 172:1 174:1 obj 1\\
2: 172:2 obj 1\\
0.5: 223:1 295:2 obj 1\\
0.5: 264:2 275:1 obj 1\\
1: 277:1 278:1 279:1 obj 1\\
1: 131:1 215:1 obj 1\\
0.5: 132:1 216:1 obj 1\\
0.5: 134:1 211:1 obj 1\\
1: 136:1 208:1 obj 1\\
0.5: 138:1 209:1 obj 1\\
0.5: 140:1 205:1 obj 1\\
1: 105:1 251:1 obj 1\\
1: 108:1 280:1 obj 1\\
1: 27:1 318:1 obj 1\\
1: 30:1 320:1 obj 1\\
1: 51:1 298:1 obj 1\\
1: 80:1 264:1 obj 1\\
1: 99:1 252:1 obj 1\\
1: 104:1 239:1 obj 1\\
1: 107:1 266:1 obj 1\\
1: 122:1 224:1 obj 1\\
1: 123:1 248:1 obj 1\\
0.5: 126:1 217:1 obj 1\\
1: 127:1 218:1 obj 1\\
1: 145:1 200:1 obj 1\\
0.5: 148:1 202:1 obj 1\\
1: 75:1 270:1 obj 1\\
1: 78:1 281:1 obj 1\\
1: 88:1 260:1 obj 1\\
1: 114:1 256:1 obj 1\\
1: 144:1 203:1 obj 1\\
1: 31:1 315:1 obj 1\\
1: 32:1 314:1 obj 1\\
1: 46:1 306:1 obj 1\\
1: 47:1 302:1 obj 1\\
1: 53:1 296:1 obj 1\\
1: 54:1 295:1 obj 1\\
1: 92:1 282:1 obj 1\\
1: 94:1 251:1 obj 1\\
1: 17:1 330:1 obj 1\\
1: 102:1 246:1 obj 1\\
0.5: 124:1 275:1 obj 1\\
1: 149:1 328:1 329:1 obj 1\\
1: 37:1 312:1 obj 1\\
1: 184:1 301:1 323:1 obj 1\\
1: 185:1 302:1 322:1 obj 1\\
1: 33:1 313:1 obj 1\\
1: 45:1 304:1 obj 1\\
1: 50:1 298:1 obj 1\\
1: 178:1 309:1 317:1 obj 1\\
1: 58:1 294:1 obj 1\\
1: 176:1 307:1 321:1 obj 1\\






File: BPP_500_1000_0.2_0.8_8.txt  Instance No. 1
Wed Feb 25 13:44:33 2015

LP0 Time: 1.18 IPTime: 1.2 The best integer solution (248):

1: 0:1 343:1 obj 1\\
1: 1:1 341:1 obj 1\\
1: 2:1 341:1 obj 1\\
1: 2:1 342:1 obj 1\\
1: 3:1 340:1 obj 1\\
1: 4:1 339:1 obj 1\\
2: 5:1 342:1 obj 1\\
1: 6:1 obj 1\\
2: 7:1 338:1 obj 1\\
1: 8:1 obj 1\\
2: 9:1 obj 1\\
1: 9:1 336:1 obj 1\\
1: 9:1 337:1 obj 1\\
1: 10:1 335:1 obj 1\\
1: 11:1 335:1 obj 1\\
1: 12:1 334:1 obj 1\\
1: 13:1 333:1 obj 1\\
1: 14:1 332:1 obj 1\\
1: 15:1 331:1 obj 1\\
1: 16:1 329:1 obj 1\\
1: 18:1 328:1 obj 1\\
1: 19:1 327:1 obj 1\\
1: 20:1 325:1 obj 1\\
1: 21:1 326:1 obj 1\\
1: 22:1 324:1 obj 1\\
1: 22:1 327:1 obj 1\\
1: 23:1 321:1 obj 1\\
2: 24:1 320:1 obj 1\\
1: 25:1 319:1 obj 1\\
1: 26:1 318:1 obj 1\\
1: 28:1 316:1 obj 1\\
1: 29:1 315:1 obj 1\\
1: 34:1 313:1 obj 1\\
1: 35:1 312:1 obj 1\\
1: 36:1 310:1 obj 1\\
1: 37:1 311:1 obj 1\\
1: 37:1 318:1 obj 1\\
1: 38:1 308:1 obj 1\\
1: 39:1 309:1 obj 1\\
1: 40:1 307:1 obj 1\\
1: 41:1 306:1 obj 1\\
1: 42:1 306:1 obj 1\\
2: 43:1 305:1 obj 1\\
1: 44:1 303:1 obj 1\\
1: 48:1 300:1 obj 1\\
1: 49:1 298:1 obj 1\\
1: 50:1 297:1 obj 1\\
1: 50:1 301:1 obj 1\\
2: 52:1 299:1 obj 1\\
1: 55:1 293:1 obj 1\\
2: 56:1 293:1 obj 1\\
1: 57:1 292:1 obj 1\\
1: 58:1 290:1 obj 1\\
1: 59:1 288:1 obj 1\\
1: 60:1 287:1 obj 1\\
1: 61:1 286:1 obj 1\\
1: 61:1 289:1 obj 1\\
2: 61:1 291:1 obj 1\\
1: 62:1 285:1 obj 1\\
1: 63:1 285:1 obj 1\\
1: 64:1 284:1 obj 1\\
2: 65:1 283:1 obj 1\\
1: 66:1 283:1 obj 1\\
1: 67:1 281:1 obj 1\\
1: 68:1 280:1 obj 1\\
1: 69:1 276:1 obj 1\\
1: 70:1 273:1 obj 1\\
1: 71:1 274:1 obj 1\\
1: 71:1 282:1 obj 1\\
1: 72:1 271:1 obj 1\\
1: 73:1 272:1 obj 1\\
1: 74:1 269:1 obj 1\\
1: 75:1 268:1 obj 1\\
1: 76:1 267:1 obj 1\\
1: 77:1 265:1 obj 1\\
1: 77:1 271:1 obj 1\\
1: 79:1 261:1 obj 1\\
3: 80:1 262:1 obj 1\\
2: 81:1 258:1 obj 1\\
1: 82:1 257:1 obj 1\\
1: 83:1 256:1 obj 1\\
1: 84:1 255:1 obj 1\\
2: 85:1 254:1 obj 1\\
1: 86:1 253:1 obj 1\\
1: 87:1 259:1 obj 1\\
1: 88:1 263:1 obj 1\\
1: 89:1 251:1 obj 1\\
2: 90:1 280:1 obj 1\\
1: 91:1 249:1 obj 1\\
1: 92:1 283:1 obj 1\\
1: 93:1 247:1 obj 1\\
1: 94:1 245:1 obj 1\\
1: 95:1 244:1 obj 1\\
1: 96:1 244:1 obj 1\\
1: 97:1 243:1 obj 1\\
1: 98:1 242:1 obj 1\\
1: 98:1 246:1 obj 1\\
1: 99:1 241:1 obj 1\\
1: 99:1 246:1 obj 1\\
2: 100:1 250:1 obj 1\\
1: 101:1 240:1 obj 1\\
1: 103:1 238:1 obj 1\\
1: 104:1 236:1 obj 1\\
1: 104:1 237:1 obj 1\\
2: 106:1 238:1 obj 1\\
1: 107:1 251:1 obj 1\\
1: 109:1 234:1 obj 1\\
2: 110:1 235:1 obj 1\\
1: 111:1 233:1 obj 1\\
1: 112:1 232:1 obj 1\\
1: 113:1 231:1 obj 1\\
3: 115:1 230:1 obj 1\\
2: 116:1 231:1 obj 1\\
1: 117:1 229:1 obj 1\\
1: 118:1 229:1 obj 1\\
1: 119:1 233:1 obj 1\\
1: 119:1 235:1 obj 1\\
1: 120:1 227:1 obj 1\\
1: 121:1 222:1 obj 1\\
1: 122:1 221:1 obj 1\\
1: 123:1 219:1 obj 1\\
2: 124:1 228:1 obj 1\\
2: 125:1 226:1 obj 1\\
1: 128:1 220:1 obj 1\\
1: 129:1 214:1 obj 1\\
1: 130:1 213:1 obj 1\\
1: 133:1 210:1 obj 1\\
3: 135:1 212:1 obj 1\\
1: 135:1 225:1 obj 1\\
2: 137:1 206:1 obj 1\\
3: 139:1 207:1 obj 1\\
1: 141:1 201:1 obj 1\\
1: 142:1 198:1 obj 1\\
1: 143:1 197:1 obj 1\\
1: 143:1 213:1 obj 1\\
1: 144:1 199:1 obj 1\\
1: 145:1 196:1 obj 1\\
1: 146:1 204:1 obj 1\\
1: 147:1 195:1 obj 1\\
1: 148:1 223:1 obj 1\\
1: 149:1 194:1 obj 1\\
1: 150:1 193:1 obj 1\\
1: 150:1 322:1 334:1 obj 1\\
1: 151:1 192:1 obj 1\\
1: 152:1 191:1 obj 1\\
1: 153:1 191:1 obj 1\\
1: 154:1 190:1 obj 1\\
1: 155:1 188:1 obj 1\\
1: 155:1 189:1 obj 1\\
1: 156:1 187:1 obj 1\\
2: 157:1 186:1 obj 1\\
1: 158:1 185:1 obj 1\\
1: 159:1 183:1 obj 1\\
1: 159:1 184:1 obj 1\\
1: 160:1 181:1 obj 1\\
1: 161:1 180:1 obj 1\\
2: 162:1 179:1 obj 1\\
1: 163:1 182:1 obj 1\\
1: 164:1 178:1 obj 1\\
1: 165:1 177:1 obj 1\\
1: 166:1 176:1 obj 1\\
2: 167:1 175:1 obj 1\\
1: 168:1 174:1 obj 1\\
1: 169:1 173:1 obj 1\\
1: 170:1 174:1 obj 1\\
1: 171:2 obj 1\\
1: 172:1 174:1 obj 1\\
2: 172:2 obj 1\\
1: 277:1 278:1 279:1 obj 1\\
1: 131:1 215:1 obj 1\\
1: 132:1 216:1 obj 1\\
1: 134:1 211:1 obj 1\\
1: 136:1 208:1 obj 1\\
1: 138:1 209:1 obj 1\\
1: 140:1 205:1 obj 1\\
1: 105:1 251:1 obj 1\\
1: 108:1 280:1 obj 1\\
1: 27:1 318:1 obj 1\\
1: 30:1 320:1 obj 1\\
1: 51:1 298:1 obj 1\\
1: 80:1 264:1 obj 1\\
1: 99:1 252:1 obj 1\\
1: 104:1 239:1 obj 1\\
1: 107:1 266:1 obj 1\\
1: 122:1 224:1 obj 1\\
1: 123:1 248:1 obj 1\\
1: 127:1 218:1 obj 1\\
1: 145:1 200:1 obj 1\\
1: 75:1 270:1 obj 1\\
1: 78:1 281:1 obj 1\\
1: 88:1 260:1 obj 1\\
1: 114:1 256:1 obj 1\\
1: 144:1 203:1 obj 1\\
1: 31:1 315:1 obj 1\\
1: 32:1 314:1 obj 1\\
1: 46:1 306:1 obj 1\\
1: 47:1 302:1 obj 1\\
1: 53:1 296:1 obj 1\\
1: 54:1 295:1 obj 1\\
1: 92:1 282:1 obj 1\\
1: 94:1 251:1 obj 1\\
1: 17:1 330:1 obj 1\\
1: 102:1 246:1 obj 1\\
1: 149:1 328:1 329:1 obj 1\\
1: 37:1 312:1 obj 1\\
1: 184:1 301:1 323:1 obj 1\\
1: 185:1 302:1 322:1 obj 1\\
1: 33:1 313:1 obj 1\\
1: 45:1 304:1 obj 1\\
1: 50:1 298:1 obj 1\\
1: 178:1 309:1 317:1 obj 1\\
1: 58:1 294:1 obj 1\\
1: 176:1 307:1 321:1 obj 1\\
1: 124:1 217:1 obj 1\\
1: 264:1 275:1 295:1 obj 1\\
1: 148:1 202:1 obj 1\\
1: 126:1 223:1 obj 1\\



The last LP solution 


File: BPP_500_1000_0.2_0.8_8.txt  Instance No. 1
Wed Feb 25 13:44:33 2015

LP solution: lpval=248 lpbnd=248

1: 0:1 343:1 obj 1\\
1: 1:1 341:1 obj 1\\
1: 2:1 341:1 obj 1\\
1: 2:1 342:1 obj 1\\
1: 3:1 340:1 obj 1\\
1: 4:1 339:1 obj 1\\
2: 5:1 342:1 obj 1\\
1: 6:1 obj 1\\
2: 7:1 338:1 obj 1\\
1: 8:1 obj 1\\
2: 9:1 obj 1\\
1: 9:1 336:1 obj 1\\
1: 9:1 337:1 obj 1\\
1: 10:1 335:1 obj 1\\
1: 11:1 335:1 obj 1\\
1: 12:1 334:1 obj 1\\
1: 13:1 333:1 obj 1\\
1: 14:1 332:1 obj 1\\
1: 15:1 331:1 obj 1\\
1: 16:1 329:1 obj 1\\
1: 18:1 328:1 obj 1\\
1: 19:1 327:1 obj 1\\
1: 20:1 325:1 obj 1\\
1: 21:1 326:1 obj 1\\
1: 22:1 324:1 obj 1\\
1: 22:1 327:1 obj 1\\
1: 23:1 321:1 obj 1\\
2: 24:1 320:1 obj 1\\
1: 25:1 319:1 obj 1\\
1: 26:1 318:1 obj 1\\
1: 28:1 316:1 obj 1\\
1: 29:1 315:1 obj 1\\
1: 34:1 313:1 obj 1\\
1: 35:1 312:1 obj 1\\
1: 36:1 310:1 obj 1\\
1: 37:1 311:1 obj 1\\
1: 37:1 318:1 obj 1\\
1: 38:1 308:1 obj 1\\
1: 39:1 309:1 obj 1\\
1: 40:1 307:1 obj 1\\
1: 41:1 306:1 obj 1\\
1: 42:1 306:1 obj 1\\
2: 43:1 305:1 obj 1\\
1: 44:1 303:1 obj 1\\
1: 48:1 300:1 obj 1\\
1: 49:1 298:1 obj 1\\
1: 50:1 297:1 obj 1\\
1: 50:1 301:1 obj 1\\
2: 52:1 299:1 obj 1\\
1: 55:1 293:1 obj 1\\
2: 56:1 293:1 obj 1\\
1: 57:1 292:1 obj 1\\
1: 58:1 290:1 obj 1\\
1: 59:1 288:1 obj 1\\
1: 60:1 287:1 obj 1\\
1: 61:1 286:1 obj 1\\
1: 61:1 289:1 obj 1\\
2: 61:1 291:1 obj 1\\
1: 62:1 285:1 obj 1\\
1: 63:1 285:1 obj 1\\
1: 64:1 284:1 obj 1\\
2: 65:1 283:1 obj 1\\
1: 66:1 283:1 obj 1\\
1: 67:1 281:1 obj 1\\
1: 68:1 280:1 obj 1\\
1: 69:1 276:1 obj 1\\
1: 70:1 273:1 obj 1\\
1: 71:1 274:1 obj 1\\
1: 71:1 282:1 obj 1\\
1: 72:1 271:1 obj 1\\
1: 73:1 272:1 obj 1\\
1: 74:1 269:1 obj 1\\
1: 75:1 268:1 obj 1\\
1: 76:1 267:1 obj 1\\
1: 77:1 265:1 obj 1\\
1: 77:1 271:1 obj 1\\
1: 79:1 261:1 obj 1\\
3: 80:1 262:1 obj 1\\
2: 81:1 258:1 obj 1\\
1: 82:1 257:1 obj 1\\
1: 83:1 256:1 obj 1\\
1: 84:1 255:1 obj 1\\
2: 85:1 254:1 obj 1\\
1: 86:1 253:1 obj 1\\
1: 87:1 259:1 obj 1\\
1: 88:1 263:1 obj 1\\
1: 89:1 251:1 obj 1\\
2: 90:1 280:1 obj 1\\
1: 91:1 249:1 obj 1\\
1: 92:1 283:1 obj 1\\
1: 93:1 247:1 obj 1\\
1: 94:1 245:1 obj 1\\
1: 95:1 244:1 obj 1\\
1: 96:1 244:1 obj 1\\
1: 97:1 243:1 obj 1\\
1: 98:1 242:1 obj 1\\
1: 98:1 246:1 obj 1\\
1: 99:1 241:1 obj 1\\
1: 99:1 246:1 obj 1\\
2: 100:1 250:1 obj 1\\
1: 101:1 240:1 obj 1\\
1: 103:1 238:1 obj 1\\
1: 104:1 236:1 obj 1\\
1: 104:1 237:1 obj 1\\
2: 106:1 238:1 obj 1\\
1: 107:1 251:1 obj 1\\
1: 109:1 234:1 obj 1\\
2: 110:1 235:1 obj 1\\
1: 111:1 233:1 obj 1\\
1: 112:1 232:1 obj 1\\
1: 113:1 231:1 obj 1\\
3: 115:1 230:1 obj 1\\
2: 116:1 231:1 obj 1\\
1: 117:1 229:1 obj 1\\
1: 118:1 229:1 obj 1\\
1: 119:1 233:1 obj 1\\
1: 119:1 235:1 obj 1\\
1: 120:1 227:1 obj 1\\
1: 121:1 222:1 obj 1\\
1: 122:1 221:1 obj 1\\
1: 123:1 219:1 obj 1\\
0.5: 124:1 217:1 obj 1\\
2: 124:1 228:1 obj 1\\
2: 125:1 226:1 obj 1\\
0.5: 126:1 216:1 obj 1\\
1: 128:1 220:1 obj 1\\
1: 129:1 214:1 obj 1\\
1: 130:1 213:1 obj 1\\
0.5: 132:1 211:1 obj 1\\
1: 133:1 210:1 obj 1\\
0.5: 134:1 209:1 obj 1\\
3: 135:1 212:1 obj 1\\
1: 135:1 225:1 obj 1\\
2: 137:1 206:1 obj 1\\
0.5: 138:1 205:1 obj 1\\
3: 139:1 207:1 obj 1\\
0.5: 140:1 202:1 obj 1\\
1: 141:1 201:1 obj 1\\
1: 142:1 198:1 obj 1\\
1: 143:1 197:1 obj 1\\
1: 143:1 213:1 obj 1\\
1: 144:1 199:1 obj 1\\
1: 145:1 196:1 obj 1\\
1: 146:1 204:1 obj 1\\
1: 147:1 195:1 obj 1\\
1.5: 148:1 223:1 obj 1\\
1: 149:1 194:1 obj 1\\
1: 150:1 193:1 obj 1\\
1: 150:1 322:1 334:1 obj 1\\
1: 151:1 192:1 obj 1\\
1: 152:1 191:1 obj 1\\
1: 153:1 191:1 obj 1\\
1: 154:1 190:1 obj 1\\
1: 155:1 188:1 obj 1\\
1: 155:1 189:1 obj 1\\
1: 156:1 187:1 obj 1\\
2: 157:1 186:1 obj 1\\
1: 158:1 185:1 obj 1\\
1: 159:1 183:1 obj 1\\
1: 159:1 184:1 obj 1\\
1: 160:1 181:1 obj 1\\
1: 161:1 180:1 obj 1\\
2: 162:1 179:1 obj 1\\
1: 163:1 182:1 obj 1\\
1: 164:1 178:1 obj 1\\
1: 165:1 177:1 obj 1\\
1: 166:1 176:1 obj 1\\
2: 167:1 175:1 obj 1\\
1: 168:1 174:1 obj 1\\
1: 169:1 173:1 obj 1\\
1: 170:1 174:1 obj 1\\
1: 171:2 obj 1\\
1: 172:1 174:1 obj 1\\
2: 172:2 obj 1\\
0.5: 223:1 295:2 obj 1\\
0.5: 264:2 275:1 obj 1\\
1: 277:1 278:1 279:1 obj 1\\
1: 131:1 215:1 obj 1\\
0.5: 132:1 216:1 obj 1\\
0.5: 134:1 211:1 obj 1\\
1: 136:1 208:1 obj 1\\
0.5: 138:1 209:1 obj 1\\
0.5: 140:1 205:1 obj 1\\
1: 105:1 251:1 obj 1\\
1: 108:1 280:1 obj 1\\
1: 27:1 318:1 obj 1\\
1: 30:1 320:1 obj 1\\
1: 51:1 298:1 obj 1\\
1: 80:1 264:1 obj 1\\
1: 99:1 252:1 obj 1\\
1: 104:1 239:1 obj 1\\
1: 107:1 266:1 obj 1\\
1: 122:1 224:1 obj 1\\
1: 123:1 248:1 obj 1\\
0.5: 126:1 217:1 obj 1\\
1: 127:1 218:1 obj 1\\
1: 145:1 200:1 obj 1\\
0.5: 148:1 202:1 obj 1\\
1: 75:1 270:1 obj 1\\
1: 78:1 281:1 obj 1\\
1: 88:1 260:1 obj 1\\
1: 114:1 256:1 obj 1\\
1: 144:1 203:1 obj 1\\
1: 31:1 315:1 obj 1\\
1: 32:1 314:1 obj 1\\
1: 46:1 306:1 obj 1\\
1: 47:1 302:1 obj 1\\
1: 53:1 296:1 obj 1\\
1: 54:1 295:1 obj 1\\
1: 92:1 282:1 obj 1\\
1: 94:1 251:1 obj 1\\
1: 17:1 330:1 obj 1\\
1: 102:1 246:1 obj 1\\
0.5: 124:1 275:1 obj 1\\
1: 149:1 328:1 329:1 obj 1\\
1: 37:1 312:1 obj 1\\
1: 184:1 301:1 323:1 obj 1\\
1: 185:1 302:1 322:1 obj 1\\
1: 33:1 313:1 obj 1\\
1: 45:1 304:1 obj 1\\
1: 50:1 298:1 obj 1\\
1: 178:1 309:1 317:1 obj 1\\
1: 58:1 294:1 obj 1\\
1: 176:1 307:1 321:1 obj 1\\



